p cnf 12 16
-1 -2 9 11 0 
-2 9 12 0 
-2 9 -3 5 12 0 
-2 9 11 0 
-3 5 12 0 
-4 -3 5 11 0 
-5 3 12 0 
-6 -7 11 0 
-5 3 11 0 
-1 -2 9 12 0 
-2 9 -3 5 11 0 
-8 -5 3 12 0 
-9 2 -5 3 11 0 
-8 -5 3 11 0 
-9 2 -5 3 12 0 
-10 -5 3 12 0 
